POSCAR file written by OVITO            
   1.00000000000000     
    12.6375304940782254    0.0000000006825256    0.0000000000000000
    -6.3187652958999418   10.9444198398621140   -0.0000000000000000
    -0.0000000000000000    0.0000000000000000   20.3832921104169600
   Al   Mg
    16   112
Direct
  0.0833332484725915  0.1666667570358484  0.0625000012063239
  0.0833332488271097  0.4166667389620073  0.0625000012063239
  0.3333332715598729  0.1666667570358484  0.0625000012063239
  0.3333332820884536  0.4166667389620073  0.0625000012063239
  0.0833332370878139  0.6666667389620073  0.0625000012063239
  0.0833332792456005  0.9166667841465994  0.0625000012063239
  0.3333332601750953  0.6666667389620073  0.0625000012063239
  0.3333332968545477  0.9166667841465994  0.0625000012063239
  0.5833332343854352  0.1666667570358484  0.0625000012063239
  0.5833332605664054  0.4166667389620073  0.0625000012063239
  0.8333332363419856  0.1666667570358484  0.0625000012063239
  0.8333332938277493  0.4166667389620073  0.0625000012063239
  0.5833332410009149  0.6666667389620073  0.0625000012063239
  0.5833332753325067  0.9166667841465994  0.0625000012063239
  0.8333332586098550  0.6666667389620073  0.0625000012063239
  0.8333333242462473  0.9166667841465994  0.0625000012063239
  0.1666667564371807  0.0833332520010686  0.1783323265121972
  0.1666667437379985  0.3333332610379927  0.1783323265121972
  0.4166667427413344  0.0833332520010686  0.1783323265121972
  0.4166667276942917  0.3333332610379927  0.1783323265121972
  0.1666667609556356  0.5833332610379927  0.1783323265121972
  0.1666667187978490  0.8333332158534006  0.1783323265121972
  0.4166667472597894  0.5833332610379927  0.1783323265121972
  0.4166667043193755  0.8333332158534006  0.1783323265121972
  0.6666667838288731  0.0833332520010686  0.1783323265121972
  0.6666667453032389  0.3333332610379927  0.1783323265121972
  0.9166666996972381  0.0833332520010686  0.1783323265121972
  0.9166667081287940  0.3333332610379927  0.1783323265121972
  0.6666667883473352  0.5833332610379927  0.1783323265121972
  0.6666667227109428  0.8333332158534006  0.1783323265121972
  0.9166667433466884  0.5833332610379927  0.1783323265121972
  0.9166666855365051  0.8333332158534006  0.1783323265121972
  0.0833332484725915  0.1666667570358484  0.3061075276361696
  0.0833332488271097  0.4166667389620073  0.3061075276361696
  0.3333332715598729  0.1666667570358484  0.3061075276361696
  0.3333332820884536  0.4166667389620073  0.3061075276361696
  0.0833332370878139  0.6666667389620073  0.3061075276361696
  0.0833332792456005  0.9166667841465994  0.3061075276361696
  0.3333332601750953  0.6666667389620073  0.3061075276361696
  0.3333332968545477  0.9166667841465994  0.3061075276361696
  0.5833332343854352  0.1666667570358484  0.3061075276361696
  0.5833332605664054  0.4166667389620073  0.3061075276361696
  0.8333332363419856  0.1666667570358484  0.3061075276361696
  0.8333332938277493  0.4166667389620073  0.3061075276361696
  0.5833332410009149  0.6666667389620073  0.3061075276361696
  0.5833332753325067  0.9166667841465994  0.3061075276361696
  0.8333332586098550  0.6666667389620073  0.3061075276361696
  0.8333333242462473  0.9166667841465994  0.3061075276361696
  0.1666667564371807  0.0833332520010686  0.4342214552361854
  0.1666667437379985  0.3333332610379927  0.4342214552361854
  0.4166667427413344  0.0833332520010686  0.4342214552361854
  0.4166667276942917  0.3333332610379927  0.4342214552361854
  0.1666667609556356  0.5833332610379927  0.4342214552361854
  0.1666667187978490  0.8333332158534006  0.4342214552361854
  0.4166667472597894  0.5833332610379927  0.4342214552361854
  0.4166667043193755  0.8333332158534006  0.4342214552361854
  0.6666667838288731  0.0833332520010686  0.4342214552361854
  0.6666667453032389  0.3333332610379927  0.4342214552361854
  0.9166666996972381  0.0833332520010686  0.4342214552361854
  0.9166667081287940  0.3333332610379927  0.4342214552361854
  0.6666667883473352  0.5833332610379927  0.4342214552361854
  0.6666667227109428  0.8333332158534006  0.4342214552361854
  0.9166667433466884  0.5833332610379927  0.4342214552361854
  0.9166666855365051  0.8333332158534006  0.4342214552361854
  0.0833332484725915  0.1666667570358484  0.5625000108569225
  0.0833332488271097  0.4166667389620073  0.5625000108569225
  0.3333332715598729  0.1666667570358484  0.5625000108569225
  0.3333332820884536  0.4166667389620073  0.5625000108569225
  0.0833332370878139  0.6666667389620073  0.5625000108569225
  0.0833332792456005  0.9166667841465994  0.5625000108569225
  0.3333332601750953  0.6666667389620073  0.5625000108569225
  0.3333332968545477  0.9166667841465994  0.5625000108569225
  0.5833332343854352  0.1666667570358484  0.5625000108569225
  0.5833332605664054  0.4166667389620073  0.5625000108569225
  0.8333332363419856  0.1666667570358484  0.5625000108569225
  0.8333332938277493  0.4166667389620073  0.5625000108569225
  0.5833332410009149  0.6666667389620073  0.5625000108569225
  0.5833332753325067  0.9166667841465994  0.5625000108569225
  0.8333332586098550  0.6666667389620073  0.5625000108569225
  0.8333333242462473  0.9166667841465994  0.5625000108569225
  0.1666667564371807  0.0833332520010686  0.6907785230499695
  0.1666667437379985  0.3333332610379927  0.6907785230499695
  0.4166667427413344  0.0833332520010686  0.6907785230499695
  0.4166667276942917  0.3333332610379927  0.6907785230499695
  0.1666667609556356  0.5833332610379927  0.6907785230499695
  0.1666667187978490  0.8333332158534006  0.6907785230499695
  0.4166667472597894  0.5833332610379927  0.6907785230499695
  0.4166667043193755  0.8333332158534006  0.6907785230499695
  0.6666667838288731  0.0833332520010686  0.6907785230499695
  0.6666667453032389  0.3333332610379927  0.6907785230499695
  0.9166666996972381  0.0833332520010686  0.6907785230499695
  0.9166667081287940  0.3333332610379927  0.6907785230499695
  0.6666667883473352  0.5833332610379927  0.6907785230499695
  0.6666667227109428  0.8333332158534006  0.6907785230499695
  0.9166667433466884  0.5833332610379927  0.6907785230499695
  0.9166666855365051  0.8333332158534006  0.6907785230499695
  0.0833332484725915  0.1666667570358484  0.8188924989029782
  0.0833332488271097  0.4166667389620073  0.8188924989029782
  0.3333332715598729  0.1666667570358484  0.8188924989029782
  0.3333332820884536  0.4166667389620073  0.8188924989029782
  0.0833332370878139  0.6666667389620073  0.8188924989029782
  0.0833332792456005  0.9166667841465994  0.8188924989029782
  0.3333332601750953  0.6666667389620073  0.8188924989029782
  0.3333332968545477  0.9166667841465994  0.8188924989029782
  0.5833332343854352  0.1666667570358484  0.8188924989029782
  0.5833332605664054  0.4166667389620073  0.8188924989029782
  0.8333332363419856  0.1666667570358484  0.8188924989029782
  0.8333332938277493  0.4166667389620073  0.8188924989029782
  0.5833332410009149  0.6666667389620073  0.8188924989029782
  0.5833332753325067  0.9166667841465994  0.8188924989029782
  0.8333332586098550  0.6666667389620073  0.8188924989029782
  0.8333333242462473  0.9166667841465994  0.8188924989029782
  0.1666667564371807  0.0833332520010686  0.9466676228221550
  0.1666667437379985  0.3333332610379927  0.9466676228221550
  0.4166667427413344  0.0833332520010686  0.9466676228221550
  0.4166667276942917  0.3333332610379927  0.9466676228221550
  0.1666667609556356  0.5833332610379927  0.9466676228221550
  0.1666667187978490  0.8333332158534006  0.9466676228221550
  0.4166667472597894  0.5833332610379927  0.9466676228221550
  0.4166667043193755  0.8333332158534006  0.9466676228221550
  0.6666667838288731  0.0833332520010686  0.9466676228221550
  0.6666667453032389  0.3333332610379927  0.9466676228221550
  0.9166666996972381  0.0833332520010686  0.9466676228221550
  0.9166667081287940  0.3333332610379927  0.9466676228221550
  0.6666667883473352  0.5833332610379927  0.9466676228221550
  0.6666667227109428  0.8333332158534006  0.9466676228221550
  0.9166667433466884  0.5833332610379927  0.9466676228221550
  0.9166666855365051  0.8333332158534006  0.9466676228221550
 
  0.00000000E+00  0.00000000E+00  0.00000000E+00
  0.00000000E+00  0.00000000E+00  0.00000000E+00
  0.00000000E+00  0.00000000E+00  0.00000000E+00
  0.00000000E+00  0.00000000E+00  0.00000000E+00
  0.00000000E+00  0.00000000E+00  0.00000000E+00
  0.00000000E+00  0.00000000E+00  0.00000000E+00
  0.00000000E+00  0.00000000E+00  0.00000000E+00
  0.00000000E+00  0.00000000E+00  0.00000000E+00
  0.00000000E+00  0.00000000E+00  0.00000000E+00
  0.00000000E+00  0.00000000E+00  0.00000000E+00
  0.00000000E+00  0.00000000E+00  0.00000000E+00
  0.00000000E+00  0.00000000E+00  0.00000000E+00
  0.00000000E+00  0.00000000E+00  0.00000000E+00
  0.00000000E+00  0.00000000E+00  0.00000000E+00
  0.00000000E+00  0.00000000E+00  0.00000000E+00
  0.00000000E+00  0.00000000E+00  0.00000000E+00
  0.00000000E+00  0.00000000E+00  0.00000000E+00
  0.00000000E+00  0.00000000E+00  0.00000000E+00
  0.00000000E+00  0.00000000E+00  0.00000000E+00
  0.00000000E+00  0.00000000E+00  0.00000000E+00
  0.00000000E+00  0.00000000E+00  0.00000000E+00
  0.00000000E+00  0.00000000E+00  0.00000000E+00
  0.00000000E+00  0.00000000E+00  0.00000000E+00
  0.00000000E+00  0.00000000E+00  0.00000000E+00
  0.00000000E+00  0.00000000E+00  0.00000000E+00
  0.00000000E+00  0.00000000E+00  0.00000000E+00
  0.00000000E+00  0.00000000E+00  0.00000000E+00
  0.00000000E+00  0.00000000E+00  0.00000000E+00
  0.00000000E+00  0.00000000E+00  0.00000000E+00
  0.00000000E+00  0.00000000E+00  0.00000000E+00
  0.00000000E+00  0.00000000E+00  0.00000000E+00
  0.00000000E+00  0.00000000E+00  0.00000000E+00
  0.00000000E+00  0.00000000E+00  0.00000000E+00
  0.00000000E+00  0.00000000E+00  0.00000000E+00
  0.00000000E+00  0.00000000E+00  0.00000000E+00
  0.00000000E+00  0.00000000E+00  0.00000000E+00
  0.00000000E+00  0.00000000E+00  0.00000000E+00
  0.00000000E+00  0.00000000E+00  0.00000000E+00
  0.00000000E+00  0.00000000E+00  0.00000000E+00
  0.00000000E+00  0.00000000E+00  0.00000000E+00
  0.00000000E+00  0.00000000E+00  0.00000000E+00
  0.00000000E+00  0.00000000E+00  0.00000000E+00
  0.00000000E+00  0.00000000E+00  0.00000000E+00
  0.00000000E+00  0.00000000E+00  0.00000000E+00
  0.00000000E+00  0.00000000E+00  0.00000000E+00
  0.00000000E+00  0.00000000E+00  0.00000000E+00
  0.00000000E+00  0.00000000E+00  0.00000000E+00
  0.00000000E+00  0.00000000E+00  0.00000000E+00
  0.00000000E+00  0.00000000E+00  0.00000000E+00
  0.00000000E+00  0.00000000E+00  0.00000000E+00
  0.00000000E+00  0.00000000E+00  0.00000000E+00
  0.00000000E+00  0.00000000E+00  0.00000000E+00
  0.00000000E+00  0.00000000E+00  0.00000000E+00
  0.00000000E+00  0.00000000E+00  0.00000000E+00
  0.00000000E+00  0.00000000E+00  0.00000000E+00
  0.00000000E+00  0.00000000E+00  0.00000000E+00
  0.00000000E+00  0.00000000E+00  0.00000000E+00
  0.00000000E+00  0.00000000E+00  0.00000000E+00
  0.00000000E+00  0.00000000E+00  0.00000000E+00
  0.00000000E+00  0.00000000E+00  0.00000000E+00
  0.00000000E+00  0.00000000E+00  0.00000000E+00
  0.00000000E+00  0.00000000E+00  0.00000000E+00
  0.00000000E+00  0.00000000E+00  0.00000000E+00
  0.00000000E+00  0.00000000E+00  0.00000000E+00
  0.00000000E+00  0.00000000E+00  0.00000000E+00
  0.00000000E+00  0.00000000E+00  0.00000000E+00
  0.00000000E+00  0.00000000E+00  0.00000000E+00
  0.00000000E+00  0.00000000E+00  0.00000000E+00
  0.00000000E+00  0.00000000E+00  0.00000000E+00
  0.00000000E+00  0.00000000E+00  0.00000000E+00
  0.00000000E+00  0.00000000E+00  0.00000000E+00
  0.00000000E+00  0.00000000E+00  0.00000000E+00
  0.00000000E+00  0.00000000E+00  0.00000000E+00
  0.00000000E+00  0.00000000E+00  0.00000000E+00
  0.00000000E+00  0.00000000E+00  0.00000000E+00
  0.00000000E+00  0.00000000E+00  0.00000000E+00
  0.00000000E+00  0.00000000E+00  0.00000000E+00
  0.00000000E+00  0.00000000E+00  0.00000000E+00
  0.00000000E+00  0.00000000E+00  0.00000000E+00
  0.00000000E+00  0.00000000E+00  0.00000000E+00
  0.00000000E+00  0.00000000E+00  0.00000000E+00
  0.00000000E+00  0.00000000E+00  0.00000000E+00
  0.00000000E+00  0.00000000E+00  0.00000000E+00
  0.00000000E+00  0.00000000E+00  0.00000000E+00
  0.00000000E+00  0.00000000E+00  0.00000000E+00
  0.00000000E+00  0.00000000E+00  0.00000000E+00
  0.00000000E+00  0.00000000E+00  0.00000000E+00
  0.00000000E+00  0.00000000E+00  0.00000000E+00
  0.00000000E+00  0.00000000E+00  0.00000000E+00
  0.00000000E+00  0.00000000E+00  0.00000000E+00
  0.00000000E+00  0.00000000E+00  0.00000000E+00
  0.00000000E+00  0.00000000E+00  0.00000000E+00
  0.00000000E+00  0.00000000E+00  0.00000000E+00
  0.00000000E+00  0.00000000E+00  0.00000000E+00
  0.00000000E+00  0.00000000E+00  0.00000000E+00
  0.00000000E+00  0.00000000E+00  0.00000000E+00
  0.00000000E+00  0.00000000E+00  0.00000000E+00
  0.00000000E+00  0.00000000E+00  0.00000000E+00
  0.00000000E+00  0.00000000E+00  0.00000000E+00
  0.00000000E+00  0.00000000E+00  0.00000000E+00
  0.00000000E+00  0.00000000E+00  0.00000000E+00
  0.00000000E+00  0.00000000E+00  0.00000000E+00
  0.00000000E+00  0.00000000E+00  0.00000000E+00
  0.00000000E+00  0.00000000E+00  0.00000000E+00
  0.00000000E+00  0.00000000E+00  0.00000000E+00
  0.00000000E+00  0.00000000E+00  0.00000000E+00
  0.00000000E+00  0.00000000E+00  0.00000000E+00
  0.00000000E+00  0.00000000E+00  0.00000000E+00
  0.00000000E+00  0.00000000E+00  0.00000000E+00
  0.00000000E+00  0.00000000E+00  0.00000000E+00
  0.00000000E+00  0.00000000E+00  0.00000000E+00
  0.00000000E+00  0.00000000E+00  0.00000000E+00
  0.00000000E+00  0.00000000E+00  0.00000000E+00
  0.00000000E+00  0.00000000E+00  0.00000000E+00
  0.00000000E+00  0.00000000E+00  0.00000000E+00
  0.00000000E+00  0.00000000E+00  0.00000000E+00
  0.00000000E+00  0.00000000E+00  0.00000000E+00
  0.00000000E+00  0.00000000E+00  0.00000000E+00
  0.00000000E+00  0.00000000E+00  0.00000000E+00
  0.00000000E+00  0.00000000E+00  0.00000000E+00
  0.00000000E+00  0.00000000E+00  0.00000000E+00
  0.00000000E+00  0.00000000E+00  0.00000000E+00
  0.00000000E+00  0.00000000E+00  0.00000000E+00
  0.00000000E+00  0.00000000E+00  0.00000000E+00
  0.00000000E+00  0.00000000E+00  0.00000000E+00
  0.00000000E+00  0.00000000E+00  0.00000000E+00
  0.00000000E+00  0.00000000E+00  0.00000000E+00
  0.00000000E+00  0.00000000E+00  0.00000000E+00
